// Photo problem 3
// Data from 
// http://www.ampl.com/NEW/LOGIC/EXAMPLES/photo9.dat
n = 9;
preferences = 
[
[0,0,1,0,1,0,0,1,0],
[0,0,0,0,1,0,0,0,1],
[0,0,0,1,1,0,0,0,0],
[1,0,0,0,1,0,0,0,0],
[1,0,0,0,0,1,0,0,0],
[1,0,0,0,0,0,0,0,1],
[0,0,1,0,0,0,0,1,0],
[0,0,0,0,0,0,1,0,1],
[0,0,0,0,0,0,0,0,0]
];
